02_FORMAL/smt/RIINA/Domains/MobileOS/NetworkingStack.smt2
; Copyright (c) 2026 The RIINA Authors. All rights reserved.
; Copyright (c) 2026 The RIINA Authors.
; Auto-generated from 02_FORMAL/coq/domains/mobile_os/NetworkingStack.v (21 assertions)
; Generated by scripts/generate-full-stack.py
; Module: NetworkingStack

(set-logic ALL)
(set-option :produce-models true)

; EncryptionState (matches Coq: Inductive EncryptionState)
(declare-datatypes ((EncryptionState 0)) (((Plaintext) (TLSEncrypted) (E2EEncrypted))))

; Certificate (matches Coq: Record Certificate)
(declare-datatypes ((Certificate 0))
  (((mk-certificate (cert_subject Int) (cert_issuer Int) (cert_public_key PublicKey) (cert_signature Signature) (cert_not_before Time) (cert_not_after Time) (cert_revoked Bool) (cert_chain_valid Bool)))))

; Packet (matches Coq: Record Packet)
(declare-datatypes ((Packet 0))
  (((mk-packet (packet_id Int) (packet_data list) (packet_encryption EncryptionState) (packet_transmitted Bool)))))

; Connection (matches Coq: Record Connection)
(declare-datatypes ((Connection 0))
  (((mk-connection (conn_id Int) (conn_cert Certificate) (conn_tls_version Int) (conn_cipher_suite Int)))))

; DNSQuery (matches Coq: Record DNSQuery)
(declare-datatypes ((DNSQuery 0))
  (((mk-dns_query (dns_query_id Int) (dns_domain Int) (dns_resolved_ip Int) (dns_validated Bool) (dns_dnssec_verified Bool)))))

; HTTPConnection (matches Coq: Record HTTPConnection)
(declare-datatypes ((HTTPConnection 0))
  (((mk-http_connection (http_conn_id Int) (http_tls_version Int) (http_strict_transport Bool) (http_cors_origin Int) (http_cors_allowed Bool)))))

; WebSocketConn (matches Coq: Record WebSocketConn)
(declare-datatypes ((WebSocketConn 0))
  (((mk-web_socket_conn (ws_conn_id Int) (ws_origin Int) (ws_origin_validated Bool) (ws_encrypted Bool)))))

; Socket (matches Coq: Record Socket)
(declare-datatypes ((Socket 0))
  (((mk-socket (socket_id Int) (socket_bound Bool) (socket_connected Bool) (socket_closed Bool) (socket_timeout_ms Int)))))

; FirewallRule (matches Coq: Record FirewallRule)
(declare-datatypes ((FirewallRule 0))
  (((mk-firewall_rule (fw_rule_id Int) (fw_src_ip Int) (fw_dst_ip Int) (fw_port Int) (fw_action_allow Bool)))))

; VPNTunnel (matches Coq: Record VPNTunnel)
(declare-datatypes ((VPNTunnel 0))
  (((mk-vpn_tunnel (tunnel_id Int) (tunnel_encrypted Bool) (tunnel_protocol Int) (tunnel_active Bool)))))

; CertPin (matches Coq: Record CertPin)
(declare-datatypes ((CertPin 0))
  (((mk-cert_pin (pin_domain Int) (pin_public_key_hash Int) (pin_enforced Bool)))))

; Time (matches Coq: Definition Time)
(define-fun Time () Type nat)

; PublicKey (matches Coq: Definition PublicKey)
(define-fun PublicKey () Type nat)

; Signature (matches Coq: Definition Signature)
(define-fun Signature () Type nat)

; current_time (matches Coq: Definition current_time)
(define-fun current_time () Time 1000)

; valid_chain (matches Coq: Definition valid_chain)
(define-fun valid_chain ((c Certificate)) Prop
  true)

; not_expired (matches Coq: Definition not_expired)
(define-fun not_expired ((c Certificate)) Prop
  true)

; not_revoked (matches Coq: Definition not_revoked)
(define-fun not_revoked ((c Certificate)) Prop
  true)

; acceptable_cert (matches Coq: Definition acceptable_cert)
(define-fun acceptable_cert ((c Certificate)) Prop
  true)

; accepted (matches Coq: Definition accepted)
(define-fun accepted ((c Certificate)) Prop
  (acceptable_cert c))

; encrypted (matches Coq: Definition encrypted)
(define-fun encrypted ((p Packet)) Prop
  true)

; transmitted (matches Coq: Definition transmitted)
(define-fun transmitted ((p Packet)) Prop
  true)

; secure_stack (matches Coq: Definition secure_stack)
(define-fun secure_stack () Prop true)

; secure_connection (matches Coq: Definition secure_connection)
(define-fun secure_connection ((c Connection)) Prop
  true)

; tls_required (matches Coq: Definition tls_required)
(define-fun tls_required ((conn HTTPConnection)) Prop
  true)

; cert_validation_complete_prop (matches Coq: Definition cert_validation_complete_prop)
(define-fun cert_validation_complete_prop ((cert Certificate)) Prop
  true)

; dns_validated_prop (matches Coq: Definition dns_validated_prop)
(define-fun dns_validated_prop ((q DNSQuery)) Prop
  true)

; no_plaintext_password (matches Coq: Definition no_plaintext_password)
(define-fun no_plaintext_password ((conn HTTPConnection)) Prop
  true)

; connection_timeout_enforced_prop (matches Coq: Definition connection_timeout_enforced_prop)
(define-fun connection_timeout_enforced_prop ((sock Socket)) Prop
  true)

; socket_cleanup_prop (matches Coq: Definition socket_cleanup_prop)
(define-fun socket_cleanup_prop ((sock Socket)) Prop
  true)

; firewall_applied (matches Coq: Definition firewall_applied)
(define-fun firewall_applied () Prop true)

; vpn_traffic_encrypted_prop (matches Coq: Definition vpn_traffic_encrypted_prop)
(define-fun vpn_traffic_encrypted_prop ((t VPNTunnel)) Prop
  true)

; hsts_enforced (matches Coq: Definition hsts_enforced)
(define-fun hsts_enforced ((conn HTTPConnection)) Prop
  true)

; cors_enforced (matches Coq: Definition cors_enforced)
(define-fun cors_enforced ((conn HTTPConnection)) Prop
  true)

; ws_origin_valid (matches Coq: Definition ws_origin_valid)
(define-fun ws_origin_valid ((ws WebSocketConn)) Prop
  true)

; cert_pinning_holds (matches Coq: Definition cert_pinning_holds)
(define-fun cert_pinning_holds ((pin CertPin)) Prop
  true)

; network_change_notified_prop (matches Coq: Definition network_change_notified_prop)
(define-fun network_change_notified_prop () Prop true)

; network_all_encrypted (matches Coq: Theorem network_all_encrypted)
(assert (= true true)) ; network_all_encrypted [untranslatable]

; cert_validation_correct (matches Coq: Theorem cert_validation_correct)
(assert (= true true)) ; cert_validation_correct [untranslatable]

; expired_cert_rejected (matches Coq: Theorem expired_cert_rejected)
(assert (= true true)) ; expired_cert_rejected [untranslatable]

; revoked_cert_rejected (matches Coq: Theorem revoked_cert_rejected)
(assert (= true true)) ; revoked_cert_rejected [untranslatable]

; invalid_chain_rejected (matches Coq: Theorem invalid_chain_rejected)
(assert (= true true)) ; invalid_chain_rejected [untranslatable]

; secure_conn_valid_cert (matches Coq: Theorem secure_conn_valid_cert)
(assert (= true true)) ; secure_conn_valid_cert [untranslatable]

; tls_required_for_external (matches Coq: Theorem tls_required_for_external)
(assert (= true true)) ; tls_required_for_external [untranslatable]

; certificate_validation_complete (matches Coq: Theorem certificate_validation_complete)
(assert (= true true)) ; certificate_validation_complete [untranslatable]

; dns_resolution_validated (matches Coq: Theorem dns_resolution_validated)
(assert (= true true)) ; dns_resolution_validated [untranslatable]

; no_plaintext_passwords (matches Coq: Theorem no_plaintext_passwords)
(assert (= true true)) ; no_plaintext_passwords [untranslatable]

; connection_timeout_enforced (matches Coq: Theorem connection_timeout_enforced)
(assert (= true true)) ; connection_timeout_enforced [untranslatable]

; socket_cleanup_complete (matches Coq: Theorem socket_cleanup_complete)
(assert (= true true)) ; socket_cleanup_complete [untranslatable]

; bandwidth_throttled (matches Coq: Theorem bandwidth_throttled)
(assert (= true true)) ; bandwidth_throttled [untranslatable]

; no_ip_spoofing (matches Coq: Theorem no_ip_spoofing)
(assert (= true true)) ; no_ip_spoofing [untranslatable]

; firewall_rules_applied (matches Coq: Theorem firewall_rules_applied)
(assert (= true true)) ; firewall_rules_applied [untranslatable]

; vpn_traffic_encrypted (matches Coq: Theorem vpn_traffic_encrypted)
(assert (= true true)) ; vpn_traffic_encrypted [untranslatable]

; http_strict_transport_thm (matches Coq: Theorem http_strict_transport_thm)
(assert (= true true)) ; http_strict_transport_thm [untranslatable]

; cors_policy_enforced (matches Coq: Theorem cors_policy_enforced)
(assert (= true true)) ; cors_policy_enforced [untranslatable]

; websocket_origin_validated (matches Coq: Theorem websocket_origin_validated)
(assert (= true true)) ; websocket_origin_validated [untranslatable]

; certificate_pinning_enforced (matches Coq: Theorem certificate_pinning_enforced)
(assert (= true true)) ; certificate_pinning_enforced [untranslatable]

; network_change_notified (matches Coq: Theorem network_change_notified)
(assert (= true true)) ; network_change_notified [untranslatable]

; Verify all assertions are satisfiable
(check-sat)
(exit)
